clingo version 5.7.2
Reading from ../axioms/dec_clingo.lp ...
Solving...
Answer: 1 (Time: 0.039s)
happens(park,20) holdsAt(carParked,21) happens(steal,22) holdsAt(carParked,22)
Answer: 2 (Time: 0.040s)
happens(park,20) holdsAt(carParked,21) happens(steal,23) holdsAt(carParked,22) holdsAt(carParked,23)
Answer: 3 (Time: 0.041s)
happens(park,20) holdsAt(carParked,21) happens(steal,24) holdsAt(carParked,22) holdsAt(carParked,23) holdsAt(carParked,24)
Answer: 4 (Time: 0.042s)
happens(park,20) holdsAt(carParked,21) happens(steal,25) holdsAt(carParked,22) holdsAt(carParked,23) holdsAt(carParked,24) holdsAt(carParked,25)
Answer: 5 (Time: 0.043s)
happens(park,20) holdsAt(carParked,21) happens(steal,26) holdsAt(carParked,22) holdsAt(carParked,23) holdsAt(carParked,24) holdsAt(carParked,25) holdsAt(carParked,26)
Answer: 6 (Time: 0.044s)
happens(park,20) holdsAt(carParked,21) happens(steal,27) holdsAt(carParked,22) holdsAt(carParked,23) holdsAt(carParked,24) holdsAt(carParked,25) holdsAt(carParked,26) holdsAt(carParked,27)
Answer: 7 (Time: 0.044s)
happens(park,20) holdsAt(carParked,21) happens(steal,28) holdsAt(carParked,22) holdsAt(carParked,23) holdsAt(carParked,24) holdsAt(carParked,25) holdsAt(carParked,26) holdsAt(carParked,27) holdsAt(carParked,28)
Answer: 8 (Time: 0.045s)
happens(park,20) holdsAt(carParked,21) happens(steal,29) holdsAt(carParked,22) holdsAt(carParked,23) holdsAt(carParked,24) holdsAt(carParked,25) holdsAt(carParked,26) holdsAt(carParked,27) holdsAt(carParked,28) holdsAt(carParked,29)
Answer: 9 (Time: 0.045s)
happens(park,20) holdsAt(carParked,21) happens(steal,30) holdsAt(carParked,22) holdsAt(carParked,23) holdsAt(carParked,24) holdsAt(carParked,25) holdsAt(carParked,26) holdsAt(carParked,27) holdsAt(carParked,28) holdsAt(carParked,29) holdsAt(carParked,30)
Answer: 10 (Time: 0.046s)
happens(park,20) holdsAt(carParked,21) happens(steal,31) holdsAt(carParked,22) holdsAt(carParked,23) holdsAt(carParked,24) holdsAt(carParked,25) holdsAt(carParked,26) holdsAt(carParked,27) holdsAt(carParked,28) holdsAt(carParked,29) holdsAt(carParked,30) holdsAt(carParked,31)
SATISFIABLE

Models       : 10+
Calls        : 1
Time         : 0.047s (Solving: 0.01s 1st Model: 0.00s Unsat: 0.00s)
CPU Time     : 0.030s
